c graph colorability of graph:
c .
c
c Generated with `cnfgen`
c (C) 2012-2019 Massimo Lauria <massimo.lauria@uniroma1.it>
c https://massimolauria.net/cnfgen
c
c COMMAND LINE: cnfgen --seed 1 -o ./kcolor/kcolor.grid10.s1.k4.cnf kcolor --grid 10 10 --savegraph ./kcolor/kcolor.grid10.s1.graph --graphformat dot 4
c
p cnf 400 1420
1 2 3 4 0
-1 -2 0
-1 -3 0
-1 -4 0
-2 -3 0
-2 -4 0
-3 -4 0
5 6 7 8 0
-5 -6 0
-5 -7 0
-5 -8 0
-6 -7 0
-6 -8 0
-7 -8 0
9 10 11 12 0
-9 -10 0
-9 -11 0
-9 -12 0
-10 -11 0
-10 -12 0
-11 -12 0
13 14 15 16 0
-13 -14 0
-13 -15 0
-13 -16 0
-14 -15 0
-14 -16 0
-15 -16 0
17 18 19 20 0
-17 -18 0
-17 -19 0
-17 -20 0
-18 -19 0
-18 -20 0
-19 -20 0
21 22 23 24 0
-21 -22 0
-21 -23 0
-21 -24 0
-22 -23 0
-22 -24 0
-23 -24 0
25 26 27 28 0
-25 -26 0
-25 -27 0
-25 -28 0
-26 -27 0
-26 -28 0
-27 -28 0
29 30 31 32 0
-29 -30 0
-29 -31 0
-29 -32 0
-30 -31 0
-30 -32 0
-31 -32 0
33 34 35 36 0
-33 -34 0
-33 -35 0
-33 -36 0
-34 -35 0
-34 -36 0
-35 -36 0
37 38 39 40 0
-37 -38 0
-37 -39 0
-37 -40 0
-38 -39 0
-38 -40 0
-39 -40 0
41 42 43 44 0
-41 -42 0
-41 -43 0
-41 -44 0
-42 -43 0
-42 -44 0
-43 -44 0
45 46 47 48 0
-45 -46 0
-45 -47 0
-45 -48 0
-46 -47 0
-46 -48 0
-47 -48 0
49 50 51 52 0
-49 -50 0
-49 -51 0
-49 -52 0
-50 -51 0
-50 -52 0
-51 -52 0
53 54 55 56 0
-53 -54 0
-53 -55 0
-53 -56 0
-54 -55 0
-54 -56 0
-55 -56 0
57 58 59 60 0
-57 -58 0
-57 -59 0
-57 -60 0
-58 -59 0
-58 -60 0
-59 -60 0
61 62 63 64 0
-61 -62 0
-61 -63 0
-61 -64 0
-62 -63 0
-62 -64 0
-63 -64 0
65 66 67 68 0
-65 -66 0
-65 -67 0
-65 -68 0
-66 -67 0
-66 -68 0
-67 -68 0
69 70 71 72 0
-69 -70 0
-69 -71 0
-69 -72 0
-70 -71 0
-70 -72 0
-71 -72 0
73 74 75 76 0
-73 -74 0
-73 -75 0
-73 -76 0
-74 -75 0
-74 -76 0
-75 -76 0
77 78 79 80 0
-77 -78 0
-77 -79 0
-77 -80 0
-78 -79 0
-78 -80 0
-79 -80 0
81 82 83 84 0
-81 -82 0
-81 -83 0
-81 -84 0
-82 -83 0
-82 -84 0
-83 -84 0
85 86 87 88 0
-85 -86 0
-85 -87 0
-85 -88 0
-86 -87 0
-86 -88 0
-87 -88 0
89 90 91 92 0
-89 -90 0
-89 -91 0
-89 -92 0
-90 -91 0
-90 -92 0
-91 -92 0
93 94 95 96 0
-93 -94 0
-93 -95 0
-93 -96 0
-94 -95 0
-94 -96 0
-95 -96 0
97 98 99 100 0
-97 -98 0
-97 -99 0
-97 -100 0
-98 -99 0
-98 -100 0
-99 -100 0
101 102 103 104 0
-101 -102 0
-101 -103 0
-101 -104 0
-102 -103 0
-102 -104 0
-103 -104 0
105 106 107 108 0
-105 -106 0
-105 -107 0
-105 -108 0
-106 -107 0
-106 -108 0
-107 -108 0
109 110 111 112 0
-109 -110 0
-109 -111 0
-109 -112 0
-110 -111 0
-110 -112 0
-111 -112 0
113 114 115 116 0
-113 -114 0
-113 -115 0
-113 -116 0
-114 -115 0
-114 -116 0
-115 -116 0
117 118 119 120 0
-117 -118 0
-117 -119 0
-117 -120 0
-118 -119 0
-118 -120 0
-119 -120 0
121 122 123 124 0
-121 -122 0
-121 -123 0
-121 -124 0
-122 -123 0
-122 -124 0
-123 -124 0
125 126 127 128 0
-125 -126 0
-125 -127 0
-125 -128 0
-126 -127 0
-126 -128 0
-127 -128 0
129 130 131 132 0
-129 -130 0
-129 -131 0
-129 -132 0
-130 -131 0
-130 -132 0
-131 -132 0
133 134 135 136 0
-133 -134 0
-133 -135 0
-133 -136 0
-134 -135 0
-134 -136 0
-135 -136 0
137 138 139 140 0
-137 -138 0
-137 -139 0
-137 -140 0
-138 -139 0
-138 -140 0
-139 -140 0
141 142 143 144 0
-141 -142 0
-141 -143 0
-141 -144 0
-142 -143 0
-142 -144 0
-143 -144 0
145 146 147 148 0
-145 -146 0
-145 -147 0
-145 -148 0
-146 -147 0
-146 -148 0
-147 -148 0
149 150 151 152 0
-149 -150 0
-149 -151 0
-149 -152 0
-150 -151 0
-150 -152 0
-151 -152 0
153 154 155 156 0
-153 -154 0
-153 -155 0
-153 -156 0
-154 -155 0
-154 -156 0
-155 -156 0
157 158 159 160 0
-157 -158 0
-157 -159 0
-157 -160 0
-158 -159 0
-158 -160 0
-159 -160 0
161 162 163 164 0
-161 -162 0
-161 -163 0
-161 -164 0
-162 -163 0
-162 -164 0
-163 -164 0
165 166 167 168 0
-165 -166 0
-165 -167 0
-165 -168 0
-166 -167 0
-166 -168 0
-167 -168 0
169 170 171 172 0
-169 -170 0
-169 -171 0
-169 -172 0
-170 -171 0
-170 -172 0
-171 -172 0
173 174 175 176 0
-173 -174 0
-173 -175 0
-173 -176 0
-174 -175 0
-174 -176 0
-175 -176 0
177 178 179 180 0
-177 -178 0
-177 -179 0
-177 -180 0
-178 -179 0
-178 -180 0
-179 -180 0
181 182 183 184 0
-181 -182 0
-181 -183 0
-181 -184 0
-182 -183 0
-182 -184 0
-183 -184 0
185 186 187 188 0
-185 -186 0
-185 -187 0
-185 -188 0
-186 -187 0
-186 -188 0
-187 -188 0
189 190 191 192 0
-189 -190 0
-189 -191 0
-189 -192 0
-190 -191 0
-190 -192 0
-191 -192 0
193 194 195 196 0
-193 -194 0
-193 -195 0
-193 -196 0
-194 -195 0
-194 -196 0
-195 -196 0
197 198 199 200 0
-197 -198 0
-197 -199 0
-197 -200 0
-198 -199 0
-198 -200 0
-199 -200 0
201 202 203 204 0
-201 -202 0
-201 -203 0
-201 -204 0
-202 -203 0
-202 -204 0
-203 -204 0
205 206 207 208 0
-205 -206 0
-205 -207 0
-205 -208 0
-206 -207 0
-206 -208 0
-207 -208 0
209 210 211 212 0
-209 -210 0
-209 -211 0
-209 -212 0
-210 -211 0
-210 -212 0
-211 -212 0
213 214 215 216 0
-213 -214 0
-213 -215 0
-213 -216 0
-214 -215 0
-214 -216 0
-215 -216 0
217 218 219 220 0
-217 -218 0
-217 -219 0
-217 -220 0
-218 -219 0
-218 -220 0
-219 -220 0
221 222 223 224 0
-221 -222 0
-221 -223 0
-221 -224 0
-222 -223 0
-222 -224 0
-223 -224 0
225 226 227 228 0
-225 -226 0
-225 -227 0
-225 -228 0
-226 -227 0
-226 -228 0
-227 -228 0
229 230 231 232 0
-229 -230 0
-229 -231 0
-229 -232 0
-230 -231 0
-230 -232 0
-231 -232 0
233 234 235 236 0
-233 -234 0
-233 -235 0
-233 -236 0
-234 -235 0
-234 -236 0
-235 -236 0
237 238 239 240 0
-237 -238 0
-237 -239 0
-237 -240 0
-238 -239 0
-238 -240 0
-239 -240 0
241 242 243 244 0
-241 -242 0
-241 -243 0
-241 -244 0
-242 -243 0
-242 -244 0
-243 -244 0
245 246 247 248 0
-245 -246 0
-245 -247 0
-245 -248 0
-246 -247 0
-246 -248 0
-247 -248 0
249 250 251 252 0
-249 -250 0
-249 -251 0
-249 -252 0
-250 -251 0
-250 -252 0
-251 -252 0
253 254 255 256 0
-253 -254 0
-253 -255 0
-253 -256 0
-254 -255 0
-254 -256 0
-255 -256 0
257 258 259 260 0
-257 -258 0
-257 -259 0
-257 -260 0
-258 -259 0
-258 -260 0
-259 -260 0
261 262 263 264 0
-261 -262 0
-261 -263 0
-261 -264 0
-262 -263 0
-262 -264 0
-263 -264 0
265 266 267 268 0
-265 -266 0
-265 -267 0
-265 -268 0
-266 -267 0
-266 -268 0
-267 -268 0
269 270 271 272 0
-269 -270 0
-269 -271 0
-269 -272 0
-270 -271 0
-270 -272 0
-271 -272 0
273 274 275 276 0
-273 -274 0
-273 -275 0
-273 -276 0
-274 -275 0
-274 -276 0
-275 -276 0
277 278 279 280 0
-277 -278 0
-277 -279 0
-277 -280 0
-278 -279 0
-278 -280 0
-279 -280 0
281 282 283 284 0
-281 -282 0
-281 -283 0
-281 -284 0
-282 -283 0
-282 -284 0
-283 -284 0
285 286 287 288 0
-285 -286 0
-285 -287 0
-285 -288 0
-286 -287 0
-286 -288 0
-287 -288 0
289 290 291 292 0
-289 -290 0
-289 -291 0
-289 -292 0
-290 -291 0
-290 -292 0
-291 -292 0
293 294 295 296 0
-293 -294 0
-293 -295 0
-293 -296 0
-294 -295 0
-294 -296 0
-295 -296 0
297 298 299 300 0
-297 -298 0
-297 -299 0
-297 -300 0
-298 -299 0
-298 -300 0
-299 -300 0
301 302 303 304 0
-301 -302 0
-301 -303 0
-301 -304 0
-302 -303 0
-302 -304 0
-303 -304 0
305 306 307 308 0
-305 -306 0
-305 -307 0
-305 -308 0
-306 -307 0
-306 -308 0
-307 -308 0
309 310 311 312 0
-309 -310 0
-309 -311 0
-309 -312 0
-310 -311 0
-310 -312 0
-311 -312 0
313 314 315 316 0
-313 -314 0
-313 -315 0
-313 -316 0
-314 -315 0
-314 -316 0
-315 -316 0
317 318 319 320 0
-317 -318 0
-317 -319 0
-317 -320 0
-318 -319 0
-318 -320 0
-319 -320 0
321 322 323 324 0
-321 -322 0
-321 -323 0
-321 -324 0
-322 -323 0
-322 -324 0
-323 -324 0
325 326 327 328 0
-325 -326 0
-325 -327 0
-325 -328 0
-326 -327 0
-326 -328 0
-327 -328 0
329 330 331 332 0
-329 -330 0
-329 -331 0
-329 -332 0
-330 -331 0
-330 -332 0
-331 -332 0
333 334 335 336 0
-333 -334 0
-333 -335 0
-333 -336 0
-334 -335 0
-334 -336 0
-335 -336 0
337 338 339 340 0
-337 -338 0
-337 -339 0
-337 -340 0
-338 -339 0
-338 -340 0
-339 -340 0
341 342 343 344 0
-341 -342 0
-341 -343 0
-341 -344 0
-342 -343 0
-342 -344 0
-343 -344 0
345 346 347 348 0
-345 -346 0
-345 -347 0
-345 -348 0
-346 -347 0
-346 -348 0
-347 -348 0
349 350 351 352 0
-349 -350 0
-349 -351 0
-349 -352 0
-350 -351 0
-350 -352 0
-351 -352 0
353 354 355 356 0
-353 -354 0
-353 -355 0
-353 -356 0
-354 -355 0
-354 -356 0
-355 -356 0
357 358 359 360 0
-357 -358 0
-357 -359 0
-357 -360 0
-358 -359 0
-358 -360 0
-359 -360 0
361 362 363 364 0
-361 -362 0
-361 -363 0
-361 -364 0
-362 -363 0
-362 -364 0
-363 -364 0
365 366 367 368 0
-365 -366 0
-365 -367 0
-365 -368 0
-366 -367 0
-366 -368 0
-367 -368 0
369 370 371 372 0
-369 -370 0
-369 -371 0
-369 -372 0
-370 -371 0
-370 -372 0
-371 -372 0
373 374 375 376 0
-373 -374 0
-373 -375 0
-373 -376 0
-374 -375 0
-374 -376 0
-375 -376 0
377 378 379 380 0
-377 -378 0
-377 -379 0
-377 -380 0
-378 -379 0
-378 -380 0
-379 -380 0
381 382 383 384 0
-381 -382 0
-381 -383 0
-381 -384 0
-382 -383 0
-382 -384 0
-383 -384 0
385 386 387 388 0
-385 -386 0
-385 -387 0
-385 -388 0
-386 -387 0
-386 -388 0
-387 -388 0
389 390 391 392 0
-389 -390 0
-389 -391 0
-389 -392 0
-390 -391 0
-390 -392 0
-391 -392 0
393 394 395 396 0
-393 -394 0
-393 -395 0
-393 -396 0
-394 -395 0
-394 -396 0
-395 -396 0
397 398 399 400 0
-397 -398 0
-397 -399 0
-397 -400 0
-398 -399 0
-398 -400 0
-399 -400 0
-1 -5 0
-2 -6 0
-3 -7 0
-4 -8 0
-1 -41 0
-2 -42 0
-3 -43 0
-4 -44 0
-5 -9 0
-6 -10 0
-7 -11 0
-8 -12 0
-5 -45 0
-6 -46 0
-7 -47 0
-8 -48 0
-9 -13 0
-10 -14 0
-11 -15 0
-12 -16 0
-9 -49 0
-10 -50 0
-11 -51 0
-12 -52 0
-13 -17 0
-14 -18 0
-15 -19 0
-16 -20 0
-13 -53 0
-14 -54 0
-15 -55 0
-16 -56 0
-17 -21 0
-18 -22 0
-19 -23 0
-20 -24 0
-17 -57 0
-18 -58 0
-19 -59 0
-20 -60 0
-21 -25 0
-22 -26 0
-23 -27 0
-24 -28 0
-21 -61 0
-22 -62 0
-23 -63 0
-24 -64 0
-25 -29 0
-26 -30 0
-27 -31 0
-28 -32 0
-25 -65 0
-26 -66 0
-27 -67 0
-28 -68 0
-29 -33 0
-30 -34 0
-31 -35 0
-32 -36 0
-29 -69 0
-30 -70 0
-31 -71 0
-32 -72 0
-33 -37 0
-34 -38 0
-35 -39 0
-36 -40 0
-33 -73 0
-34 -74 0
-35 -75 0
-36 -76 0
-37 -77 0
-38 -78 0
-39 -79 0
-40 -80 0
-41 -45 0
-42 -46 0
-43 -47 0
-44 -48 0
-41 -81 0
-42 -82 0
-43 -83 0
-44 -84 0
-45 -49 0
-46 -50 0
-47 -51 0
-48 -52 0
-45 -85 0
-46 -86 0
-47 -87 0
-48 -88 0
-49 -53 0
-50 -54 0
-51 -55 0
-52 -56 0
-49 -89 0
-50 -90 0
-51 -91 0
-52 -92 0
-53 -57 0
-54 -58 0
-55 -59 0
-56 -60 0
-53 -93 0
-54 -94 0
-55 -95 0
-56 -96 0
-57 -61 0
-58 -62 0
-59 -63 0
-60 -64 0
-57 -97 0
-58 -98 0
-59 -99 0
-60 -100 0
-61 -65 0
-62 -66 0
-63 -67 0
-64 -68 0
-61 -101 0
-62 -102 0
-63 -103 0
-64 -104 0
-65 -69 0
-66 -70 0
-67 -71 0
-68 -72 0
-65 -105 0
-66 -106 0
-67 -107 0
-68 -108 0
-69 -73 0
-70 -74 0
-71 -75 0
-72 -76 0
-69 -109 0
-70 -110 0
-71 -111 0
-72 -112 0
-73 -77 0
-74 -78 0
-75 -79 0
-76 -80 0
-73 -113 0
-74 -114 0
-75 -115 0
-76 -116 0
-77 -117 0
-78 -118 0
-79 -119 0
-80 -120 0
-81 -85 0
-82 -86 0
-83 -87 0
-84 -88 0
-81 -121 0
-82 -122 0
-83 -123 0
-84 -124 0
-85 -89 0
-86 -90 0
-87 -91 0
-88 -92 0
-85 -125 0
-86 -126 0
-87 -127 0
-88 -128 0
-89 -93 0
-90 -94 0
-91 -95 0
-92 -96 0
-89 -129 0
-90 -130 0
-91 -131 0
-92 -132 0
-93 -97 0
-94 -98 0
-95 -99 0
-96 -100 0
-93 -133 0
-94 -134 0
-95 -135 0
-96 -136 0
-97 -101 0
-98 -102 0
-99 -103 0
-100 -104 0
-97 -137 0
-98 -138 0
-99 -139 0
-100 -140 0
-101 -105 0
-102 -106 0
-103 -107 0
-104 -108 0
-101 -141 0
-102 -142 0
-103 -143 0
-104 -144 0
-105 -109 0
-106 -110 0
-107 -111 0
-108 -112 0
-105 -145 0
-106 -146 0
-107 -147 0
-108 -148 0
-109 -113 0
-110 -114 0
-111 -115 0
-112 -116 0
-109 -149 0
-110 -150 0
-111 -151 0
-112 -152 0
-113 -117 0
-114 -118 0
-115 -119 0
-116 -120 0
-113 -153 0
-114 -154 0
-115 -155 0
-116 -156 0
-117 -157 0
-118 -158 0
-119 -159 0
-120 -160 0
-121 -125 0
-122 -126 0
-123 -127 0
-124 -128 0
-121 -161 0
-122 -162 0
-123 -163 0
-124 -164 0
-125 -129 0
-126 -130 0
-127 -131 0
-128 -132 0
-125 -165 0
-126 -166 0
-127 -167 0
-128 -168 0
-129 -133 0
-130 -134 0
-131 -135 0
-132 -136 0
-129 -169 0
-130 -170 0
-131 -171 0
-132 -172 0
-133 -137 0
-134 -138 0
-135 -139 0
-136 -140 0
-133 -173 0
-134 -174 0
-135 -175 0
-136 -176 0
-137 -141 0
-138 -142 0
-139 -143 0
-140 -144 0
-137 -177 0
-138 -178 0
-139 -179 0
-140 -180 0
-141 -145 0
-142 -146 0
-143 -147 0
-144 -148 0
-141 -181 0
-142 -182 0
-143 -183 0
-144 -184 0
-145 -149 0
-146 -150 0
-147 -151 0
-148 -152 0
-145 -185 0
-146 -186 0
-147 -187 0
-148 -188 0
-149 -153 0
-150 -154 0
-151 -155 0
-152 -156 0
-149 -189 0
-150 -190 0
-151 -191 0
-152 -192 0
-153 -157 0
-154 -158 0
-155 -159 0
-156 -160 0
-153 -193 0
-154 -194 0
-155 -195 0
-156 -196 0
-157 -197 0
-158 -198 0
-159 -199 0
-160 -200 0
-161 -165 0
-162 -166 0
-163 -167 0
-164 -168 0
-161 -201 0
-162 -202 0
-163 -203 0
-164 -204 0
-165 -169 0
-166 -170 0
-167 -171 0
-168 -172 0
-165 -205 0
-166 -206 0
-167 -207 0
-168 -208 0
-169 -173 0
-170 -174 0
-171 -175 0
-172 -176 0
-169 -209 0
-170 -210 0
-171 -211 0
-172 -212 0
-173 -177 0
-174 -178 0
-175 -179 0
-176 -180 0
-173 -213 0
-174 -214 0
-175 -215 0
-176 -216 0
-177 -181 0
-178 -182 0
-179 -183 0
-180 -184 0
-177 -217 0
-178 -218 0
-179 -219 0
-180 -220 0
-181 -185 0
-182 -186 0
-183 -187 0
-184 -188 0
-181 -221 0
-182 -222 0
-183 -223 0
-184 -224 0
-185 -189 0
-186 -190 0
-187 -191 0
-188 -192 0
-185 -225 0
-186 -226 0
-187 -227 0
-188 -228 0
-189 -193 0
-190 -194 0
-191 -195 0
-192 -196 0
-189 -229 0
-190 -230 0
-191 -231 0
-192 -232 0
-193 -197 0
-194 -198 0
-195 -199 0
-196 -200 0
-193 -233 0
-194 -234 0
-195 -235 0
-196 -236 0
-197 -237 0
-198 -238 0
-199 -239 0
-200 -240 0
-201 -205 0
-202 -206 0
-203 -207 0
-204 -208 0
-201 -241 0
-202 -242 0
-203 -243 0
-204 -244 0
-205 -209 0
-206 -210 0
-207 -211 0
-208 -212 0
-205 -245 0
-206 -246 0
-207 -247 0
-208 -248 0
-209 -213 0
-210 -214 0
-211 -215 0
-212 -216 0
-209 -249 0
-210 -250 0
-211 -251 0
-212 -252 0
-213 -217 0
-214 -218 0
-215 -219 0
-216 -220 0
-213 -253 0
-214 -254 0
-215 -255 0
-216 -256 0
-217 -221 0
-218 -222 0
-219 -223 0
-220 -224 0
-217 -257 0
-218 -258 0
-219 -259 0
-220 -260 0
-221 -225 0
-222 -226 0
-223 -227 0
-224 -228 0
-221 -261 0
-222 -262 0
-223 -263 0
-224 -264 0
-225 -229 0
-226 -230 0
-227 -231 0
-228 -232 0
-225 -265 0
-226 -266 0
-227 -267 0
-228 -268 0
-229 -233 0
-230 -234 0
-231 -235 0
-232 -236 0
-229 -269 0
-230 -270 0
-231 -271 0
-232 -272 0
-233 -237 0
-234 -238 0
-235 -239 0
-236 -240 0
-233 -273 0
-234 -274 0
-235 -275 0
-236 -276 0
-237 -277 0
-238 -278 0
-239 -279 0
-240 -280 0
-241 -245 0
-242 -246 0
-243 -247 0
-244 -248 0
-241 -281 0
-242 -282 0
-243 -283 0
-244 -284 0
-245 -249 0
-246 -250 0
-247 -251 0
-248 -252 0
-245 -285 0
-246 -286 0
-247 -287 0
-248 -288 0
-249 -253 0
-250 -254 0
-251 -255 0
-252 -256 0
-249 -289 0
-250 -290 0
-251 -291 0
-252 -292 0
-253 -257 0
-254 -258 0
-255 -259 0
-256 -260 0
-253 -293 0
-254 -294 0
-255 -295 0
-256 -296 0
-257 -261 0
-258 -262 0
-259 -263 0
-260 -264 0
-257 -297 0
-258 -298 0
-259 -299 0
-260 -300 0
-261 -265 0
-262 -266 0
-263 -267 0
-264 -268 0
-261 -301 0
-262 -302 0
-263 -303 0
-264 -304 0
-265 -269 0
-266 -270 0
-267 -271 0
-268 -272 0
-265 -305 0
-266 -306 0
-267 -307 0
-268 -308 0
-269 -273 0
-270 -274 0
-271 -275 0
-272 -276 0
-269 -309 0
-270 -310 0
-271 -311 0
-272 -312 0
-273 -277 0
-274 -278 0
-275 -279 0
-276 -280 0
-273 -313 0
-274 -314 0
-275 -315 0
-276 -316 0
-277 -317 0
-278 -318 0
-279 -319 0
-280 -320 0
-281 -285 0
-282 -286 0
-283 -287 0
-284 -288 0
-281 -321 0
-282 -322 0
-283 -323 0
-284 -324 0
-285 -289 0
-286 -290 0
-287 -291 0
-288 -292 0
-285 -325 0
-286 -326 0
-287 -327 0
-288 -328 0
-289 -293 0
-290 -294 0
-291 -295 0
-292 -296 0
-289 -329 0
-290 -330 0
-291 -331 0
-292 -332 0
-293 -297 0
-294 -298 0
-295 -299 0
-296 -300 0
-293 -333 0
-294 -334 0
-295 -335 0
-296 -336 0
-297 -301 0
-298 -302 0
-299 -303 0
-300 -304 0
-297 -337 0
-298 -338 0
-299 -339 0
-300 -340 0
-301 -305 0
-302 -306 0
-303 -307 0
-304 -308 0
-301 -341 0
-302 -342 0
-303 -343 0
-304 -344 0
-305 -309 0
-306 -310 0
-307 -311 0
-308 -312 0
-305 -345 0
-306 -346 0
-307 -347 0
-308 -348 0
-309 -313 0
-310 -314 0
-311 -315 0
-312 -316 0
-309 -349 0
-310 -350 0
-311 -351 0
-312 -352 0
-313 -317 0
-314 -318 0
-315 -319 0
-316 -320 0
-313 -353 0
-314 -354 0
-315 -355 0
-316 -356 0
-317 -357 0
-318 -358 0
-319 -359 0
-320 -360 0
-321 -325 0
-322 -326 0
-323 -327 0
-324 -328 0
-321 -361 0
-322 -362 0
-323 -363 0
-324 -364 0
-325 -329 0
-326 -330 0
-327 -331 0
-328 -332 0
-325 -365 0
-326 -366 0
-327 -367 0
-328 -368 0
-329 -333 0
-330 -334 0
-331 -335 0
-332 -336 0
-329 -369 0
-330 -370 0
-331 -371 0
-332 -372 0
-333 -337 0
-334 -338 0
-335 -339 0
-336 -340 0
-333 -373 0
-334 -374 0
-335 -375 0
-336 -376 0
-337 -341 0
-338 -342 0
-339 -343 0
-340 -344 0
-337 -377 0
-338 -378 0
-339 -379 0
-340 -380 0
-341 -345 0
-342 -346 0
-343 -347 0
-344 -348 0
-341 -381 0
-342 -382 0
-343 -383 0
-344 -384 0
-345 -349 0
-346 -350 0
-347 -351 0
-348 -352 0
-345 -385 0
-346 -386 0
-347 -387 0
-348 -388 0
-349 -353 0
-350 -354 0
-351 -355 0
-352 -356 0
-349 -389 0
-350 -390 0
-351 -391 0
-352 -392 0
-353 -357 0
-354 -358 0
-355 -359 0
-356 -360 0
-353 -393 0
-354 -394 0
-355 -395 0
-356 -396 0
-357 -397 0
-358 -398 0
-359 -399 0
-360 -400 0
-361 -365 0
-362 -366 0
-363 -367 0
-364 -368 0
-365 -369 0
-366 -370 0
-367 -371 0
-368 -372 0
-369 -373 0
-370 -374 0
-371 -375 0
-372 -376 0
-373 -377 0
-374 -378 0
-375 -379 0
-376 -380 0
-377 -381 0
-378 -382 0
-379 -383 0
-380 -384 0
-381 -385 0
-382 -386 0
-383 -387 0
-384 -388 0
-385 -389 0
-386 -390 0
-387 -391 0
-388 -392 0
-389 -393 0
-390 -394 0
-391 -395 0
-392 -396 0
-393 -397 0
-394 -398 0
-395 -399 0
-396 -400 0
